SDVRP instances/p02/p02_1090_tsplib0_splitx10_0.vrp
NAME:.\SDVRP_splitx10_
BEST_KNOWN: 0
COMMENT: 0
DIMENSION: 453
CAPACITY: 1400
EDGE_WEIGHT_FORMAT: FUNCTION
EDGE_WEIGHT_TYPE: EXACT_2D
NODE_COORD_SECTION
1 0.00000 0.00000
2 -18 -18
3 -18 -18
4 -18 -18
5 -18 -18
6 -18 -18
7 -18 -18
8 -18 -18
9 -18 -18
10 -4 -14
11 -4 -14
12 -4 -14
13 -4 -14
14 -19 5
15 -19 5
16 -19 5
17 -19 5
18 -19 5
19 5 -5
20 5 -5
21 5 -5
22 5 -5
23 5 -5
24 5 -5
25 5 -5
26 5 -5
27 15 -20
28 15 -20
29 15 -20
30 15 -20
31 15 -20
32 15 -20
33 15 -20
34 -7 -6
35 -7 -6
36 -7 -6
37 -7 -6
38 -7 -6
39 -7 -6
40 -7 -6
41 -7 -6
42 -7 -6
43 10 10
44 10 10
45 10 10
46 10 10
47 10 10
48 10 10
49 10 10
50 10 10
51 15 5
52 15 5
53 15 5
54 15 5
55 15 5
56 15 5
57 -14 19
58 -14 19
59 -14 19
60 -14 19
61 0 26
62 0 26
63 0 26
64 0 26
65 15 25
66 15 25
67 15 25
68 15 25
69 15 25
70 15 25
71 15 25
72 15 25
73 15 25
74 -5 11
75 -5 11
76 -5 11
77 -5 11
78 22 -5
79 22 -5
80 22 -5
81 22 -5
82 22 -5
83 22 -5
84 22 17
85 22 17
86 22 17
87 22 17
88 22 17
89 22 -16
90 22 -16
91 22 -16
92 22 -16
93 22 -16
94 -19 -4
95 -19 -4
96 -19 -4
97 -19 -4
98 -19 -4
99 -19 -4
100 -7 4
101 -7 4
102 -7 4
103 -7 4
104 -31 16
105 -31 16
106 -31 16
107 -31 16
108 22 8
109 22 8
110 22 8
111 22 8
112 22 8
113 22 8
114 22 8
115 22 8
116 26 -26
117 26 -26
118 26 -26
119 26 -26
120 26 -26
121 26 -26
122 26 -26
123 4 -27
124 4 -27
125 4 -27
126 4 -27
127 4 -27
128 -14 -27
129 -14 -27
130 -14 -27
131 -29 -12
132 -29 -12
133 -29 -12
134 -29 -12
135 -29 -12
136 -29 -12
137 -33 3
138 -33 3
139 -33 3
140 -33 3
141 -33 3
142 -33 3
143 -23 24
144 -23 24
145 -23 24
146 -23 24
147 -23 24
148 -23 24
149 -23 24
150 1 6
151 1 6
152 1 6
153 1 6
154 1 6
155 1 6
156 1 6
157 1 6
158 15 -6
159 15 -6
160 15 -6
161 15 -6
162 -5 -24
163 -5 -24
164 -5 -24
165 -5 -24
166 -5 -24
167 -5 -24
168 12 -14
169 12 -14
170 12 -14
171 3 -14
172 3 -14
173 3 -14
174 3 -14
175 3 -14
176 -9 36
177 -9 36
178 -9 36
179 -9 36
180 -9 36
181 -9 36
182 -9 36
183 -9 36
184 -18 13
185 -18 13
186 -18 13
187 -18 13
188 -18 13
189 -18 13
190 -18 13
191 -18 13
192 -14 -11
193 -14 -11
194 -14 -11
195 -14 -11
196 -14 -11
197 -14 -11
198 10 0
199 10 0
200 10 0
201 10 0
202 10 0
203 15 10
204 15 10
205 15 10
206 15 10
207 15 10
208 15 10
209 15 10
210 15 10
211 14 -30
212 14 -30
213 14 -30
214 14 -30
215 14 -30
216 14 -30
217 20 -25
218 20 -25
219 20 -25
220 20 -25
221 20 -25
222 20 -25
223 20 -25
224 7 26
225 7 26
226 7 26
227 7 26
228 7 26
229 7 26
230 7 26
231 -10 20
232 -10 20
233 -10 20
234 -10 20
235 -10 20
236 -10 20
237 -10 20
238 -10 10
239 -10 10
240 -10 10
241 -10 10
242 -10 10
243 -10 10
244 -10 10
245 -28 -23
246 -28 -23
247 -25 -26
248 -25 -26
249 -24 -21
250 -24 -21
251 -24 -21
252 -19 8
253 -19 8
254 -19 8
255 -19 8
256 -19 8
257 -19 8
258 10 -10
259 10 -10
260 10 -10
261 10 -10
262 11 2
263 11 2
264 11 2
265 11 2
266 11 2
267 10 -25
268 10 -25
269 10 -25
270 10 -25
271 10 -25
272 10 -25
273 10 -25
274 10 -25
275 8 -19
276 8 -19
277 8 -19
278 8 -19
279 8 -19
280 8 -19
281 8 -19
282 -28 -2
283 -28 -2
284 -28 -2
285 -28 -2
286 -28 -2
287 -28 -2
288 -28 -2
289 -28 -2
290 -25 16
291 -25 16
292 -25 16
293 -25 16
294 -25 16
295 -25 16
296 -25 16
297 -25 16
298 -25 16
299 -11 -1
300 -11 -1
301 -11 -1
302 -11 -1
303 -11 -1
304 -11 -1
305 14 -2
306 14 -2
307 14 -2
308 14 -2
309 14 -2
310 14 -2
311 15 17
312 15 17
313 15 17
314 27 1
315 27 1
316 27 1
317 27 1
318 27 1
319 27 1
320 27 1
321 -30 30
322 -30 30
323 -30 30
324 -30 30
325 -30 30
326 -30 30
327 -30 30
328 -30 30
329 -30 30
330 -34 -15
331 -34 -15
332 -34 -15
333 -34 -15
334 -34 -15
335 -34 -15
336 -34 -15
337 25 -13
338 25 -13
339 25 -13
340 25 -13
341 25 -13
342 25 -13
343 25 -13
344 0 20
345 0 20
346 0 20
347 0 20
348 0 20
349 30 24
350 30 24
351 30 24
352 30 24
353 30 24
354 24 -36
355 24 -36
356 24 -36
357 24 -36
358 24 -36
359 -4 -34
360 -4 -34
361 -4 -34
362 -4 -34
363 -4 -34
364 -10 -20
365 -10 -20
366 -10 -20
367 -20 -10
368 -20 -10
369 -20 -10
370 -25 -35
371 -25 -35
372 -25 -35
373 -25 -35
374 -25 -35
375 -25 -35
376 10 30
377 10 30
378 10 30
379 10 30
380 10 30
381 10 30
382 17 32
383 17 32
384 17 32
385 17 32
386 17 32
387 17 32
388 5 2
389 5 2
390 5 2
391 5 2
392 5 2
393 5 2
394 5 2
395 5 2
396 -2 -7
397 -2 -7
398 -2 -7
399 -2 -7
400 -2 -7
401 10 -36
402 10 -36
403 10 -36
404 10 -36
405 10 -36
406 10 -36
407 10 -36
408 10 -36
409 10 -36
410 26 -32
411 26 -32
412 26 -32
413 26 -32
414 26 -32
415 26 -32
416 26 -32
417 26 -32
418 26 -32
419 19 -35
420 19 -35
421 19 -35
422 19 -35
423 19 -35
424 19 -35
425 -5 20
426 -5 20
427 -5 20
428 -5 20
429 -5 20
430 -5 20
431 -13 -16
432 -13 -16
433 -13 -16
434 -13 -16
435 -13 -16
436 -13 -16
437 -13 -16
438 -13 -16
439 0 -20
440 0 -20
441 0 -20
442 0 -20
443 0 -20
444 0 -20
445 0 -20
446 0 -20
447 0 -20
448 0 -20
449 0 -3
450 0 -3
451 0 -3
452 0 -3
453 0 -3
DEMAND_SECTION
1 0
2 280
3 280
4 280
5 140
6 70
7 14
8 14
9 12
10 280
11 280
12 14
13 6
14 280
15 70
16 14
17 14
18 12
19 280
20 280
21 140
22 14
23 14
24 14
25 14
26 4
27 280
28 280
29 280
30 280
31 14
32 14
33 2
34 280
35 280
36 280
37 140
38 70
39 14
40 14
41 14
42 8
43 280
44 280
45 70
46 14
47 14
48 14
49 14
50 4
51 140
52 70
53 14
54 14
55 14
56 8
57 280
58 70
59 14
60 6
61 140
62 14
63 14
64 2
65 280
66 280
67 280
68 140
69 14
70 14
71 14
72 14
73 4
74 280
75 280
76 14
77 6
78 280
79 280
80 70
81 14
82 14
83 2
84 280
85 280
86 140
87 14
88 6
89 280
90 280
91 280
92 70
93 10
94 280
95 140
96 14
97 14
98 14
99 8
100 140
101 70
102 14
103 6
104 280
105 280
106 140
107 10
108 280
109 280
110 280
111 140
112 70
113 14
114 14
115 12
116 280
117 280
118 140
119 14
120 14
121 14
122 8
123 140
124 70
125 14
126 14
127 12
128 280
129 280
130 280
131 280
132 280
133 280
134 14
135 14
136 2
137 280
138 280
139 140
140 70
141 14
142 6
143 280
144 280
145 280
146 140
147 14
148 14
149 12
150 280
151 280
152 280
153 70
154 14
155 14
156 14
157 8
158 140
159 14
160 14
161 2
162 280
163 280
164 280
165 140
166 14
167 6
168 280
169 14
170 6
171 140
172 70
173 14
174 14
175 12
176 280
177 280
178 280
179 140
180 70
181 14
182 14
183 12
184 280
185 280
186 280
187 140
188 14
189 14
190 14
191 8
192 280
193 280
194 280
195 140
196 70
197 10
198 280
199 70
200 14
201 14
202 2
203 280
204 280
205 280
206 140
207 70
208 14
209 14
210 2
211 280
212 280
213 70
214 14
215 14
216 12
217 280
218 280
219 280
220 140
221 14
222 14
223 2
224 280
225 280
226 70
227 14
228 14
229 14
230 8
231 280
232 280
233 70
234 14
235 14
236 14
237 8
238 280
239 280
240 280
241 140
242 70
243 14
244 6
245 280
246 70
247 140
248 70
249 280
250 280
251 280
252 280
253 280
254 280
255 14
256 14
257 12
258 280
259 280
260 280
261 280
262 280
263 140
264 14
265 14
266 2
267 280
268 280
269 70
270 14
271 14
272 14
273 14
274 4
275 280
276 280
277 14
278 14
279 14
280 14
281 4
282 280
283 280
284 280
285 140
286 70
287 14
288 14
289 2
290 280
291 280
292 140
293 70
294 14
295 14
296 14
297 14
298 4
299 280
300 280
301 280
302 14
303 14
304 12
305 280
306 280
307 280
308 14
309 14
310 2
311 140
312 70
313 10
314 280
315 280
316 280
317 280
318 14
319 14
320 12
321 280
322 280
323 280
324 70
325 14
326 14
327 14
328 14
329 4
330 280
331 280
332 280
333 70
334 14
335 14
336 12
337 280
338 140
339 14
340 14
341 14
342 14
343 4
344 280
345 280
346 280
347 70
348 10
349 280
350 280
351 14
352 14
353 2
354 280
355 140
356 70
357 14
358 6
359 280
360 280
361 280
362 280
363 10
364 280
365 140
366 10
367 280
368 140
369 70
370 280
371 140
372 14
373 14
374 14
375 8
376 280
377 140
378 70
379 14
380 14
381 12
382 280
383 280
384 70
385 14
386 14
387 12
388 280
389 280
390 280
391 140
392 70
393 14
394 14
395 12
396 140
397 70
398 14
399 14
400 2
401 280
402 280
403 280
404 280
405 70
406 14
407 14
408 14
409 8
410 280
411 280
412 280
413 140
414 70
415 14
416 14
417 14
418 8
419 280
420 280
421 280
422 280
423 70
424 10
425 280
426 280
427 280
428 280
429 14
430 6
431 280
432 280
433 280
434 140
435 70
436 14
437 14
438 2
439 280
440 280
441 280
442 280
443 70
444 14
445 14
446 14
447 14
448 4
449 140
450 14
451 14
452 14
453 8
DEPOT_SECTION
1
-1
EOF