SDVRP instances/p02/p02_1090_tsplib0_splitx10_0.sol
452 -8 6 7 1 5 3 4 2 191 40 38 -11 10 166 164 161 162 163 165 -12 9 431 435 433 437 434 432 436 430 -14 16 15 13 17 253 251 255 256 254 252 -19 18 157 158 159 160 77 82 78 81 80 79 -22 257 260 258 259 20 25 21 23 24 -31 32 30 28 26 29 27 448 449 452 450 451 -37 35 33 41 39 34 36 395 396 399 398 397 -45 48 49 44 47 46 43 42 225 224 227 223 226 228 229 -50 55 51 316 317 314 315 318 319 313 -54 53 52 113 111 112 114 107 109 110 108 263 265 262 -56 58 57 59 143 144 145 142 146 -62 63 60 61 380 378 377 376 379 375 385 384 382 381 383 386 -65 66 71 68 64 67 70 69 72 311 312 310 -75 76 74 73 238 237 240 242 241 243 -83 87 85 86 84 348 351 349 350 352 -89 90 92 91 88 336 340 339 338 337 341 342 -96 98 93 95 97 94 285 288 141 139 138 137 136 140 -100 102 101 99 185 183 184 188 189 190 239 -105 106 103 104 296 291 290 295 186 187 -115 120 117 116 118 121 119 221 218 220 216 -122 123 126 125 124 361 362 360 359 358 445 447 -127 129 128 363 364 365 -131 130 132 250 248 -134 133 135 330 335 334 329 332 333 331 366 367 -147 148 321 324 325 322 326 323 327 320 328 297 293 289 294 292 -153 149 151 150 156 152 154 155 -169 167 168 412 411 413 410 415 417 409 414 416 -172 174 171 266 267 273 272 268 279 275 274 280 277 276 278 -173 170 441 446 440 438 439 442 443 444 -177 175 182 180 181 178 179 176 424 429 -192 195 193 194 196 302 300 298 -197 200 201 198 199 308 307 305 309 306 304 -209 207 208 205 203 202 206 204 261 264 -214 210 211 215 213 418 356 355 354 353 357 -219 222 217 419 421 423 420 422 -234 236 235 233 231 232 230 427 425 -270 271 269 212 404 405 403 401 400 402 407 406 408 -283 286 284 281 282 287 301 303 299 -346 343 345 347 344 428 426 -368 249 245 244 247 246 369 373 371 372 370 374 -390 388 387 393 394 391 389 392 0 





OBJ=
2372.034
BEST_KNOWN=
0.000